
Gurobi 9.0.2 (win64) logging started Sat Oct 10 12:29:44 2020

Changed value of parameter logfile to result\v6.2-20201010T1221\scenario_2030_eff050_cab3800.log
   Prev:   Default: 
Gurobi Optimizer version 9.0.2 build v9.0.2rc0 (win64)
Optimize a model with 1384150 rows, 884815 columns and 3912197 nonzeros
Model fingerprint: 0x91ced13f
Coefficient statistics:
  Matrix range     [1e-07, 4e+05]
  Objective range  [1e+00, 1e+00]
  Bounds range     [0e+00, 0e+00]
  RHS range        [2e-05, 3e+08]
Warning: Model contains large matrix coefficient range
         Consider reformulating model or setting NumericFocus parameter
         to avoid numerical issues.

Concurrent LP optimizer: primal simplex, dual simplex, and barrier
Showing barrier log only...

Presolve removed 1129315 rows and 656241 columns
Presolve time: 3.46s
Presolved: 254835 rows, 342440 columns, 891938 nonzeros

Ordering time: 0.12s

Barrier statistics:
 Dense cols : 9
 AA' NZ     : 8.194e+05
 Factor NZ  : 4.461e+06 (roughly 300 MBytes of memory)
 Factor Ops : 1.125e+08 (less than 1 second per iteration)
 Threads    : 30

                  Objective                Residual
Iter       Primal          Dual         Primal    Dual     Compl     Time
   0  -2.03876570e+16 -1.58515571e+15  6.11e+06 1.56e+04  2.45e+12     4s
   1  -3.12760414e+15 -1.58937824e+15  9.30e+05 4.73e+06  8.03e+11     4s
   2  -1.27380870e+15 -1.31158773e+15  3.76e+05 7.68e+05  2.15e+11     5s
   3  -4.89631144e+14 -1.06103301e+15  1.40e+05 2.07e+05  7.08e+10     5s
   4  -1.11182725e+14 -6.51880941e+14  2.92e+04 5.05e+04  1.63e+10     5s
   5  -3.52510716e+13 -4.30296321e+14  9.31e+03 2.46e+04  6.57e+09     6s
   6  -1.64027700e+13 -2.41527646e+14  4.60e+03 7.09e+03  2.54e+09     6s
   7  -5.99965186e+12 -1.36619912e+14  1.85e+03 1.31e+03  7.86e+08     6s
   8  -5.34993522e+11 -6.13237509e+13  3.57e+02 1.74e+02  1.65e+08     6s
   9   6.21501324e+11 -6.08024934e+12  1.28e+00 1.55e+00  1.00e+07     7s
  10   1.48084504e+11 -7.18688745e+11  6.65e-02 7.45e-09  1.26e+06     7s
  11   8.17654966e+10 -3.35684007e+11  3.43e-02 7.45e-09  6.06e+05     7s
  12   3.79450946e+10 -1.12054896e+11  1.35e-02 1.12e-08  2.17e+05     8s
  13   2.35457548e+10 -5.79252934e+10  7.51e-03 1.49e-08  1.18e+05     8s
  14   2.36256658e+10 -4.95674410e+10  7.33e-03 1.49e-08  1.06e+05     8s
  15   1.61256894e+10 -1.21046757e+10  3.81e-03 1.12e-08  4.09e+04     8s
  16   9.69503771e+09 -2.77229111e+09  7.03e-04 1.12e-08  1.80e+04     9s
  17   9.06435041e+09  3.28836836e+09  4.42e-04 7.45e-09  8.35e+03     9s
  18   8.82361193e+09  5.26444221e+09  3.59e-04 5.59e-09  5.14e+03     9s
  19   8.38211182e+09  6.04103274e+09  2.10e-04 3.73e-09  3.38e+03     9s
  20   8.19476915e+09  6.54259276e+09  1.50e-04 3.73e-09  2.39e+03    10s
  21   8.07151824e+09  6.64245111e+09  1.10e-04 2.79e-09  2.06e+03    10s
  22   7.95967630e+09  6.92450157e+09  7.52e-05 2.79e-09  1.50e+03    10s
  23   7.82164513e+09  7.36080543e+09  3.43e-05 2.79e-09  6.66e+02    10s
  24   7.75214336e+09  7.45874370e+09  1.58e-05 2.79e-09  4.24e+02    11s
  25   7.72497553e+09  7.49934695e+09  9.34e-06 1.86e-09  3.26e+02    11s
  26   7.71291767e+09  7.53607187e+09  6.39e-06 1.86e-09  2.55e+02    11s
  27   7.70764444e+09  7.55383883e+09  5.23e-06 2.79e-09  2.22e+02    12s
  28   7.70005926e+09  7.59367626e+09  3.54e-06 1.86e-09  1.54e+02    12s
  29   7.69245650e+09  7.62407223e+09  1.91e-06 1.86e-09  9.87e+01    12s
  30   7.68731149e+09  7.65378179e+09  8.54e-07 1.86e-09  4.84e+01    12s
  31   7.68448068e+09  7.66125452e+09  4.09e-07 1.86e-09  3.35e+01    13s
  32   7.68332163e+09  7.66943450e+09  2.95e-07 1.86e-09  2.00e+01    13s
  33   7.68250028e+09  7.67199019e+09  6.45e-07 1.86e-09  1.52e+01    13s
  34   7.68206649e+09  7.67429607e+09  2.98e-07 1.86e-09  1.12e+01    13s
  35   7.68175789e+09  7.67794578e+09  1.48e-07 1.86e-09  5.50e+00    14s
  36   7.68164463e+09  7.67961490e+09  1.79e-07 1.86e-09  2.93e+00    14s
  37   7.68153425e+09  7.68023660e+09  1.87e-07 1.86e-09  1.87e+00    14s
  38   7.68150043e+09  7.68072427e+09  6.25e-08 1.86e-09  1.12e+00    14s
  39   7.68149075e+09  7.68137318e+09  1.42e-07 2.79e-09  1.70e-01    15s
  40   7.68147635e+09  7.68141779e+09  3.08e-07 1.86e-09  8.45e-02    15s
  41   7.68147511e+09  7.68147473e+09  4.64e-09 2.79e-09  5.53e-04    15s
  42   7.68147507e+09  7.68147484e+09  8.11e-05 3.67e-08  3.22e-04    16s

Barrier solved model in 42 iterations and 15.72 seconds
Optimal objective 7.68147507e+09

Crossover log...

   75721 DPushes remaining with DInf 0.0000000e+00                16s
    1206 DPushes remaining with DInf 0.0000000e+00                20s
       0 DPushes remaining with DInf 0.0000000e+00                22s
Warning: Markowitz tolerance tightened to 0.5

  158779 PPushes remaining with PInf 2.3743068e-02                22s
   59297 PPushes remaining with PInf 1.8439083e-02                28s
    7396 PPushes remaining with PInf 1.6533329e-01                33s
       0 PPushes remaining with PInf 0.0000000e+00                55s

  Push phase complete: Pinf 0.0000000e+00, Dinf 1.2752888e+06     55s

Iteration    Objective       Primal Inf.    Dual Inf.      Time
  185035    7.6814750e+09   0.000000e+00   1.275289e+06     55s
  188172    7.6814750e+09   0.000000e+00   2.000000e-06     60s
Extra one simplex iteration after uncrush
  188173    7.6814750e+09   0.000000e+00   0.000000e+00     61s

Solved with barrier
Solved in 188173 iterations and 61.07 seconds
Optimal objective  7.681474977e+09
Warning: unscaled primal violation = 0.000881587 and residual = 0.000881587
